p edge 60 550
e 1 2
e 1 4
e 1 6
e 1 20
e 1 21
e 1 24
e 1 30
e 1 41
e 1 44
e 1 47
e 1 49
e 1 52
e 1 55
e 2 12
e 2 14
e 2 19
e 2 22
e 2 24
e 2 31
e 2 33
e 2 37
e 2 40
e 2 47
e 2 52
e 2 54
e 3 13
e 3 14
e 3 16
e 3 18
e 3 21
e 3 22
e 3 25
e 3 27
e 3 31
e 3 33
e 3 37
e 3 42
e 3 49
e 3 53
e 3 56
e 3 60
e 4 6
e 4 19
e 4 20
e 4 22
e 4 24
e 4 25
e 4 26
e 4 28
e 4 32
e 4 33
e 4 36
e 4 40
e 4 41
e 4 44
e 4 49
e 4 53
e 4 54
e 4 55
e 4 57
e 5 6
e 5 9
e 5 16
e 5 19
e 5 25
e 5 29
e 5 30
e 5 33
e 5 38
e 5 39
e 5 42
e 5 43
e 5 46
e 5 52
e 5 58
e 5 59
e 5 60
e 6 7
e 6 10
e 6 12
e 6 13
e 6 14
e 6 18
e 6 20
e 6 22
e 6 28
e 6 30
e 6 31
e 6 33
e 6 34
e 6 40
e 6 42
e 6 43
e 6 46
e 6 47
e 6 49
e 6 55
e 6 56
e 6 57
e 7 10
e 7 11
e 7 19
e 7 24
e 7 25
e 7 37
e 7 38
e 7 43
e 7 45
e 7 46
e 7 47
e 7 48
e 7 56
e 7 59
e 8 11
e 8 12
e 8 14
e 8 17
e 8 20
e 8 23
e 8 26
e 8 30
e 8 34
e 8 35
e 8 38
e 8 44
e 8 46
e 8 53
e 8 55
e 9 10
e 9 11
e 9 14
e 9 17
e 9 21
e 9 22
e 9 23
e 9 25
e 9 26
e 9 29
e 9 30
e 9 32
e 9 34
e 9 35
e 9 36
e 9 38
e 9 45
e 9 46
e 9 48
e 9 51
e 9 55
e 9 56
e 9 60
e 10 13
e 10 14
e 10 19
e 10 25
e 10 26
e 10 31
e 10 33
e 10 34
e 10 39
e 10 43
e 10 46
e 10 47
e 10 48
e 10 49
e 10 56
e 10 58
e 10 59
e 11 15
e 11 16
e 11 17
e 11 19
e 11 20
e 11 22
e 11 35
e 11 39
e 11 41
e 11 42
e 11 44
e 11 48
e 11 49
e 11 53
e 11 54
e 11 59
e 12 14
e 12 20
e 12 21
e 12 24
e 12 28
e 12 32
e 12 34
e 12 36
e 12 40
e 12 43
e 12 46
e 12 48
e 12 52
e 12 53
e 12 55
e 12 56
e 12 60
e 13 15
e 13 16
e 13 18
e 13 24
e 13 28
e 13 33
e 13 35
e 13 37
e 13 38
e 13 41
e 13 42
e 13 44
e 13 45
e 13 46
e 13 47
e 13 48
e 13 50
e 13 55
e 14 23
e 14 24
e 14 26
e 14 28
e 14 31
e 14 34
e 14 38
e 14 39
e 14 43
e 14 47
e 14 49
e 14 50
e 14 51
e 14 55
e 14 57
e 14 58
e 15 24
e 15 26
e 15 27
e 15 29
e 15 30
e 15 32
e 15 38
e 15 44
e 15 49
e 15 51
e 15 52
e 15 54
e 15 57
e 15 59
e 16 17
e 16 28
e 16 30
e 16 32
e 16 35
e 16 41
e 16 44
e 16 46
e 16 47
e 16 48
e 16 49
e 16 51
e 16 55
e 16 56
e 16 59
e 17 18
e 17 28
e 17 29
e 17 31
e 17 39
e 17 44
e 17 48
e 17 53
e 17 56
e 17 57
e 17 58
e 17 59
e 18 22
e 18 26
e 18 32
e 18 33
e 18 36
e 18 45
e 18 46
e 18 49
e 18 51
e 18 53
e 19 23
e 19 28
e 19 33
e 19 37
e 19 39
e 19 42
e 19 43
e 19 44
e 19 60
e 20 21
e 20 26
e 20 28
e 20 29
e 20 37
e 20 41
e 20 42
e 20 43
e 20 45
e 20 46
e 20 51
e 20 54
e 20 56
e 20 58
e 20 59
e 20 60
e 21 26
e 21 37
e 21 39
e 21 45
e 21 46
e 21 50
e 21 51
e 21 54
e 21 55
e 21 57
e 21 59
e 21 60
e 22 27
e 22 28
e 22 29
e 22 31
e 22 32
e 22 35
e 22 45
e 22 46
e 22 49
e 22 55
e 22 59
e 23 26
e 23 27
e 23 28
e 23 30
e 23 34
e 23 43
e 23 57
e 23 60
e 24 30
e 24 33
e 24 36
e 24 37
e 24 45
e 24 48
e 24 49
e 24 52
e 24 53
e 24 57
e 24 59
e 24 60
e 25 27
e 25 35
e 25 36
e 25 45
e 25 47
e 25 51
e 25 53
e 25 54
e 25 55
e 25 56
e 25 58
e 26 28
e 26 32
e 26 37
e 26 38
e 26 40
e 26 41
e 26 44
e 26 45
e 26 47
e 27 29
e 27 31
e 27 32
e 27 33
e 27 36
e 27 37
e 27 39
e 27 40
e 27 41
e 27 43
e 27 47
e 27 48
e 27 49
e 28 29
e 28 30
e 28 32
e 28 33
e 28 36
e 28 38
e 28 40
e 28 43
e 28 46
e 28 47
e 28 50
e 28 52
e 28 54
e 28 57
e 28 58
e 28 59
e 29 38
e 29 47
e 29 48
e 29 50
e 29 51
e 29 58
e 29 59
e 29 60
e 30 31
e 30 37
e 30 39
e 30 42
e 30 44
e 30 46
e 30 47
e 30 48
e 30 49
e 30 53
e 30 58
e 31 40
e 31 41
e 31 49
e 31 50
e 31 51
e 31 56
e 31 58
e 31 59
e 32 40
e 32 43
e 32 46
e 32 54
e 32 56
e 32 60
e 33 34
e 33 35
e 33 48
e 33 50
e 33 56
e 34 37
e 34 40
e 34 49
e 34 50
e 34 54
e 34 59
e 35 37
e 35 38
e 35 39
e 35 40
e 35 41
e 35 42
e 35 45
e 35 55
e 35 58
e 35 59
e 36 41
e 36 47
e 36 53
e 36 55
e 36 60
e 37 44
e 37 46
e 37 47
e 37 51
e 37 52
e 37 53
e 37 55
e 37 58
e 37 59
e 38 40
e 38 45
e 38 46
e 38 49
e 38 54
e 38 57
e 38 60
e 39 40
e 39 46
e 39 48
e 39 50
e 39 52
e 39 58
e 39 59
e 40 45
e 40 50
e 40 53
e 40 54
e 40 55
e 40 56
e 40 59
e 41 45
e 41 47
e 41 56
e 41 58
e 41 59
e 42 43
e 42 49
e 42 53
e 42 58
e 42 60
e 43 45
e 43 51
e 43 52
e 43 54
e 43 57
e 44 53
e 44 56
e 44 58
e 44 59
e 45 46
e 45 48
e 45 51
e 45 58
e 45 59
e 45 60
e 46 48
e 46 56
e 46 58
e 46 59
e 46 60
e 47 52
e 47 55
e 47 56
e 47 60
e 48 53
e 48 54
e 48 58
e 48 59
e 48 60
e 49 53
e 49 54
e 49 57
e 49 59
e 49 60
e 50 53
e 51 53
e 51 56
e 51 57
e 52 58
e 53 56
e 53 60
e 54 56
e 54 57
e 54 59
e 54 60
e 55 56
e 55 58
e 56 58
